Set parameter TSPort to value 51199
Set parameter TokenServer to value "open-license1.lanl.gov"
Set parameter TimeLimit to value 512
Set parameter Threads to value 1
Gurobi Optimizer version 10.0.3 build v10.0.3rc0 (linux64)

CPU model: Intel(R) Xeon(R) CPU E5-2695 v4 @ 2.10GHz, instruction set [SSE2|AVX|AVX2]
Thread count: 36 physical cores, 72 logical processors, using up to 1 threads

Optimize a model with 0 rows, 598 columns and 0 nonzeros
Model fingerprint: 0x9381c687
Model has 2566 quadratic objective terms
Variable types: 0 continuous, 598 integer (598 binary)
Coefficient statistics:
  Matrix range     [0e+00, 0e+00]
  Objective range  [2e+00, 3e+01]
  QObjective range [8e+00, 8e+00]
  Bounds range     [1e+00, 1e+00]
  RHS range        [0e+00, 0e+00]
Found heuristic solution: objective 0.0000000
Found heuristic solution: objective -1020.000000
Found heuristic solution: objective -3648.000000
Found heuristic solution: objective -3670.000000
Presolve removed 0 rows and 1 columns
Presolve time: 0.22s
Presolved: 2565 rows, 3162 columns, 7695 nonzeros
Variable types: 0 continuous, 3162 integer (3162 binary)

Root relaxation: objective -4.924000e+03, 717 iterations, 0.01 seconds (0.01 work units)

    Nodes    |    Current Node    |     Objective Bounds      |     Work
 Expl Unexpl |  Obj  Depth IntInf | Incumbent    BestBd   Gap | It/Node Time

     0     0 -4924.0000    0  597 -3670.0000 -4924.0000  34.2%     -    0s
     0     0 -4479.0000    0  835 -3670.0000 -4479.0000  22.0%     -    0s
     0     0 -4479.0000    0  835 -3670.0000 -4479.0000  22.0%     -    0s
     0     0 -4394.3333    0  925 -3670.0000 -4394.3333  19.7%     -    0s
     0     0 -4394.3333    0  911 -3670.0000 -4394.3333  19.7%     -    1s
     0     2 -4394.3333    0  901 -3670.0000 -4394.3333  19.7%     -    1s
   505   472 -4362.8333    3  940 -3670.0000 -4372.3333  19.1%  92.8    5s
   528   488 -3704.0000  110 1660 -3670.0000 -4047.5759  10.3%  89.3   10s
   536   494 -3990.0278   55 2117 -3670.0000 -3990.0278  8.72%  88.0   15s
   543   498 -3889.0000   70 2387 -3670.0000 -3951.8933  7.68%  86.9   22s
   550   503 -3839.0000   81 2488 -3670.0000 -3945.9163  7.52%  85.8   25s
   552   504 -3682.6667  125 2624 -3670.0000 -3923.5088  6.91%  85.4   30s
   557   508 -3910.7984   31 2634 -3670.0000 -3910.7984  6.56%  84.7   35s
   564   512 -3783.0000   91 2691 -3670.0000 -3897.4970  6.20%  83.6   42s
   569   516 -3895.1004   31 2760 -3670.0000 -3895.1004  6.13%  82.9   45s
   576   520 -3886.0225   15 2741 -3670.0000 -3886.0225  5.89%  81.9   51s
   582   524 -3881.3188   16 2765 -3670.0000 -3881.3188  5.76%  81.0   55s
   593   532 -3757.0000   98 2793 -3670.0000 -3876.5644  5.63%  79.5   60s
   602   538 -3799.0000   89 2820 -3670.0000 -3872.5426  5.52%  78.3   65s
   613   545 -3867.0692   70 2823 -3670.0000 -3867.0692  5.37%  76.9   70s
   624   552 -3860.8117   74 2820 -3670.0000 -3860.8117  5.20%  75.6   75s
   635   560 -3857.5099   65 2847 -3670.0000 -3857.5099  5.11%  74.3   80s
   650   570 -3839.0000   81 2870 -3670.0000 -3853.7392  5.01%  72.6   85s
   668   582 -3774.0000   93 2913 -3670.0000 -3850.6189  4.92%  70.6   90s
   687   594 -3848.0137   46 2914 -3670.0000 -3848.0137  4.85%  68.7   95s
   696   602 -3848.0122   10 2510 -3670.0000 -3848.0122  4.85%   351  103s
   697   602 -3848.0122   49 2755 -3670.0000 -3848.0122  4.85%   351  109s
   698   603 -3848.0122   27 2807 -3670.0000 -3848.0122  4.85%   350  112s
   703   606 -3722.0000  105 2911 -3670.0000 -3848.0122  4.85%   348  115s
   714   614 -3765.0000   99 2877 -3670.0000 -3845.5707  4.78%   342  120s
   726   622 -3843.4189   25 2923 -3670.0000 -3843.4189  4.73%   337  125s
   737   629 -3841.6137   55 2941 -3670.0000 -3841.6137  4.68%   332  130s
   750   638 -3839.0000   81 2926 -3670.0000 -3839.6212  4.62%   326  135s
   764   647 -3783.0000   91 2955 -3670.0000 -3837.6990  4.57%   320  140s
   780   658 -3836.0322   64 2956 -3670.0000 -3836.0322  4.52%   313  145s
   798   670 -3834.3965   27 2975 -3670.0000 -3834.3965  4.48%   306  150s
   814   680 -3765.0000   99 2980 -3670.0000 -3833.0839  4.44%   300  155s
   831   692 -3719.0000  114 2968 -3670.0000 -3831.7233  4.41%   294  160s
   850   704 -3830.4069   81 2968 -3670.0000 -3830.4069  4.37%   288  165s
   862   712 -3829.8433   42 2969 -3670.0000 -3829.8433  4.36%   284  176s
   864   716 -3827.8187   25 2936 -3670.0000 -3827.8187  4.30%   439  180s
   867   718 -3823.2754   27 2844 -3670.0000 -3827.8187  4.30%   449  185s
   870   720 -3820.3699   28 2832 -3670.0000 -3827.8187  4.30%   461  191s
   874   722 -3814.6071   30 2786 -3670.0000 -3827.8187  4.30%   471  195s
   879   726 -3810.0114   33 2737 -3670.0000 -3827.8187  4.30%   482  200s
   885   730 -3804.9437   36 2668 -3670.0000 -3827.8187  4.30%   492  205s
   891   734 -3799.1566   39 2599 -3670.0000 -3827.8187  4.30%   504  210s
   898   738 -3790.5812   42 2535 -3670.0000 -3827.8187  4.30%   515  215s
   903   742 -3785.7421   45 2524 -3670.0000 -3827.8187  4.30%   525  220s
   909   746 -3780.2868   48 2468 -3670.0000 -3827.8187  4.30%   534  233s
   912   748 -3777.2218   49 2452 -3670.0000 -3827.8187  4.30%   540  235s
   918   752 -3774.8672   52 2429 -3670.0000 -3827.8187  4.30%   550  240s
   927   758 -3765.7607   57 2375 -3670.0000 -3827.8187  4.30%   560  245s
   937   764 -3758.2003   62 2283 -3670.0000 -3827.8187  4.30%   571  250s
   951   774 -3753.6709   69 2213 -3670.0000 -3827.8187  4.30%   578  255s
   964   782 -3738.9877   75 2118 -3670.0000 -3827.8187  4.30%   588  260s
   981   794 -3734.1610   84 2063 -3670.0000 -3827.8187  4.30%   594  265s
  1001   807 -3717.9763   94 1998 -3670.0000 -3827.8187  4.30%   599  270s
  1017   818 -3702.7332  102 1890 -3670.0000 -3827.8187  4.30%   607  275s
  1046   837 -3676.4692  116 1843 -3670.0000 -3827.8187  4.30%   609  280s
  1061   835 -3822.8806   27 2866 -3670.0000 -3827.6804  4.30%   613  286s
  1064   837 -3817.5131   29 2818 -3670.0000 -3827.6804  4.30%   620  290s
  1067   839 -3813.6426   30 2778 -3670.0000 -3827.6804  4.30%   627  295s
  1071   842 -3810.1983   32 2711 -3670.0000 -3827.6804  4.30%   636  300s
  1076   845 -3803.6765   35 2654 -3670.0000 -3827.6804  4.30%   643  305s
  1080   848 -3797.6318   37 2622 -3670.0000 -3827.6804  4.30%   653  310s
  1085   851 -3793.9551   39 2573 -3670.0000 -3827.6804  4.30%   661  315s
  1091   855 -3786.0042   42 2527 -3670.0000 -3827.6804  4.30%   670  320s
  1096   858 -3784.6556   45 2455 -3670.0000 -3827.6804  4.30%   678  325s
  1101   862 -3774.1437   47 2423 -3670.0000 -3827.6804  4.30%   695  332s
  1104   864 -3776.9301   49 2400 -3670.0000 -3827.6804  4.30%   700  335s
  1111   868 -3768.5746   52 2377 -3670.0000 -3827.6804  4.30%   710  340s
  1119   874 -3761.2233   56 2348 -3670.0000 -3827.6804  4.30%   716  345s
  1127   879 -3747.7277   60 2301 -3670.0000 -3827.6804  4.30%   724  350s
  1137   886 -3747.0252   65 2260 -3670.0000 -3827.6804  4.30%   731  355s
  1148   893 -3741.4717   71 2177 -3670.0000 -3827.6804  4.30%   738  360s
  1159   900 -3728.0824   76 2056 -3670.0000 -3827.6804  4.30%   745  365s
H 1160   846                    -3684.000000 -3827.6804  3.90%   745  365s
  1180   861 -3723.7994   87 2029 -3684.0000 -3827.6804  3.90%   746  370s
  1203   877 -3711.0982   98 1893 -3684.0000 -3827.6804  3.90%   746  375s
H 1214   834                    -3696.000000 -3827.6804  3.56%   744  376s
H 1226   805                    -3698.000000 -3827.6804  3.51%   744  378s
  1238   811 -3702.5045  116 1701 -3698.0000 -3827.6804  3.51%   741  380s
  1250   805 -3822.3321   27 2903 -3698.0000 -3825.1608  3.44%   744  385s
H 1252   763                    -3700.000000 -3825.1608  3.38%   746  389s
  1252   765 -3817.5129   28 2877 -3700.0000 -3825.1608  3.38%   750  390s
  1257   769 -3812.3945   31 2790 -3700.0000 -3825.1608  3.38%   757  396s
  1260   771 -3808.7532   32 2755 -3700.0000 -3825.1608  3.38%   763  400s
  1265   774 -3804.1384   35 2685 -3700.0000 -3825.1608  3.38%   769  405s
  1270   777 -3799.3924   37 2631 -3700.0000 -3825.1608  3.38%   775  410s
  1275   781 -3793.5129   40 2537 -3700.0000 -3825.1608  3.38%   780  415s
  1280   784 -3787.5302   42 2504 -3700.0000 -3825.1608  3.38%   787  420s
  1285   787 -3783.3173   45 2485 -3700.0000 -3825.1608  3.38%   795  425s
  1292   792 -3775.1945   48 2434 -3700.0000 -3825.1608  3.38%   801  430s
  1299   797 -3769.9838   52 2392 -3700.0000 -3825.1608  3.38%   806  435s
  1307   802 -3762.7364   56 2366 -3700.0000 -3825.1608  3.38%   812  440s
  1317   809 -3756.7934   61 2313 -3700.0000 -3825.1608  3.38%   816  445s
  1330   817 -3741.7035   67 2296 -3700.0000 -3825.1608  3.38%   819  450s
  1345   827 -3738.1753   75 2140 -3700.0000 -3825.1608  3.38%   821  455s
  1359   837 -3727.6719   82 2063 -3700.0000 -3825.1608  3.38%   824  460s
  1381   851 -3720.0115   93 1898 -3700.0000 -3825.1608  3.38%   824  465s
  1406   868 -3708.0456  105 1798 -3700.0000 -3825.1608  3.38%   822  470s
  1429   868 -3819.4925   28 2854 -3700.0000 -3825.1575  3.38%   818  476s
  1432   870 -3815.9897   29 2834 -3700.0000 -3825.1575  3.38%   823  481s
  1435   872 -3810.8011   31 2760 -3700.0000 -3825.1575  3.38%   827  485s
  1439   875 -3810.7603   31 2760 -3700.0000 -3825.1575  3.38%   834  490s
  1443   878 -3805.2565   33 2735 -3700.0000 -3825.1575  3.38%   838  495s
  1447   880 -3807.4456   32 2755 -3700.0000 -3825.1575  3.38%   844  500s
  1452   884 -3804.1704   33 2737 -3700.0000 -3825.1575  3.38%   850  506s
  1456   886 -3802.3487   34 2706 -3700.0000 -3825.1575  3.38%   855  511s

Cutting planes:
  Gomory: 23
  MIR: 116
  Flow cover: 1259
  Zero half: 428
  RLT: 102
  BQP: 157

Explored 1457 nodes (1251415 simplex iterations) in 512.00 seconds (598.81 work units)
Thread count was 1 (of 72 available processors)

Solution count 8: -3700 -3698 -3696 ... 0

Time limit reached
Best objective -3.700000000000e+03, best bound -3.824000000000e+03, gap 3.3514%

User-callback calls 22350, time in user-callback 0.10 sec

BQP_SOLUTION, 598, 2566, -1342.000000, 512.002682, -1, 1, -1, 1, -1, 1, -1, 1, 1, -1, -1, -1, -1, -1, 1, 1, -1, 1, -1, 1, -1, -1, -1, -1, 1, -1, -1, -1, 1, -1, -1, -1, -1, 1, -1, 1, -1, -1, -1, 1, -1, -1, -1, -1, -1, -1, -1, -1, -1, 1, -1, -1, -1, -1, 1, -1, -1, -1, -1, -1, -1, -1, -1, -1, 1, -1, 1, -1, -1, 1, -1, -1, -1, 1, -1, -1, -1, -1, -1, 1, -1, -1, -1, -1, -1, 1, -1, 1, -1, -1, -1, -1, -1, 1, -1, 1, -1, -1, -1, 1, 1, -1, -1, 1, -1, 1, -1, -1, -1, -1, 1, -1, -1, 1, -1, 1, 1, -1, -1, -1, 1, -1, 1, 1, -1, 1, -1, -1, 1, -1, 1, -1, 1, 1, -1, 1, -1, -1, 1, -1, 1, 1, -1, 1, -1, 1, -1, -1, 1, -1, 1, 1, 1, 1, -1, 1, 1, -1, 1, 1, 1, 1, -1, 1, 1, 1, -1, -1, 1, 1, 1, 1, -1, 1, -1, 1, 1, -1, 1, 1, -1, -1, 1, 1, 1, 1, -1, 1, 1, 1, 1, -1, 1, 1, 1, 1, -1, 1, 1, 1, 1, -1, 1, 1, 1, 1, 1, -1, 1, 1, 1, 1, 1, 1, 1, -1, 1, 1, 1, -1, 1, 1, 1, 1, -1, -1, 1, -1, 1, -1, -1, 1, -1, 1, 1, -1, 1, 1, -1, -1, -1, -1, 1, 1, 1, -1, -1, 1, 1, -1, -1, -1, 1, 1, -1, -1, -1, -1, 1, 1, -1, -1, -1, 1, 1, -1, -1, -1, 1, 1, -1, -1, -1, 1, -1, -1, -1, -1, 1, -1, -1, 1, -1, 1, 1, -1, -1, -1, 1, 1, -1, 1, -1, 1, 1, -1, -1, 1, -1, 1, -1, -1, 1, -1, 1, 1, 1, -1, 1, 1, -1, -1, -1, 1, 1, -1, -1, 1, -1, 1, -1, -1, -1, 1, -1, -1, 1, -1, 1, -1, -1, -1, 1, 1, 1, -1, -1, 1, 1, 1, -1, -1, -1, 1, 1, -1, -1, 1, 1, 1, 1, -1, 1, 1, 1, -1, -1, 1, 1, -1, 1, 1, 1, 1, 1, -1, 1, 1, 1, 1, -1, 1, 1, 1, 1, -1, 1, 1, 1, 1, -1, -1, 1, 1, 1, 1, -1, 1, 1, 1, 1, -1, 1, 1, 1, 1, -1, 1, 1, 1, 1, -1, 1, 1, 1, 1, -1, 1, 1, 1, 1, 1, 1, 1, 1, 1, -1, 1, 1, 1, -1, -1, 1, 1, 1, -1, 1, -1, 1, 1, 1, -1, 1, 1, 1, 1, 1, 1, 1, 1, 1, -1, 1, 1, 1, 1, 1, 1, 1, 1, 1, -1, 1, 1, 1, 1, 1, 1, 1, -1, -1, 1, 1, 1, 1, 1, 1, 1, -1, -1, 1, -1, 1, 1, 1, -1, 1, 1, 1, 1, -1, 1, 1, 1, -1, 1, 1, 1, 1, -1, 1, -1, 1, 1, -1, -1, -1, 1, -1, 1, -1, -1, 1, 1, -1, -1, 1, 1, 1, 1, -1, -1, -1, -1, 1, -1, -1, 1, 1, 1, -1, -1, 1, -1, 1, -1, -1, 1, -1, 1, 1, -1, -1, 1, 1, -1, 1, -1, 1, 1, -1, -1, -1, 1, -1, -1, -1, 1, 1, 1, -1, -1, -1, -1, 1, -1, -1, 1, -1, 1, 1, -1, -1, -1, 1, -1, -1, -1, -1, 1, -1, -1, -1, 1, 1, 1, -1, -1, 1, -1, 1, -1, -1, -1, 1, 1, -1, -1, 1, -1, 1, -1, 1, 1, -1, 1, 1, -1
BQP_DATA, 598, 2566, -1342.000000, -1466.000000, -3700.000000, -3824.000000, 512.002682, 1826, 1457
